c User generated cnf file
p cnf 11 16
5 -4 7 0 
10 8 -5 0 
10 -8 7 0 
7 -4 9 0 
3 -7 10 0 
10 10 -9 0 
9 8 -1 0 
5 9 -7 0 
8 9 -9 0 
5 -10 1 0 
6 -9 8 0 
1 3 -8 0 
3 -6 7 0 
9 7 -9 0 
11 -9 4 0 
5 7 -10 0 
